27 27
21
3 3 7 0
3 4 17 0
3 5 7 3
3 6 20 21
3 7 0 20
3 8 14 19
3 9 14 10
3 10 14 0
3 11 17 4
3 12 17 15
3 19 7 8
3 20 0 0
3 21 20 0
4 3 10 14
4 4 10 17
4 6 10 21
4 7 23 20
4 8 3 19
4 14 10 0
4 19 3 0
4 20 23 0
